
Gurobi 11.0.3 (mac64[arm], gurobi_cl) logging started Mon Nov  4 09:07:48 2024

Set parameter TimeLimit to value 600
Set parameter NoRelHeurTime to value 600
Set parameter LogFile to value "gurobi.log"
Using license file /Users/sakai/gurobi.lic
Restricted license - for non-production use only - expires 2025-11-24

Gurobi Optimizer version 11.0.3 build v11.0.3rc0 (mac64[arm] - Darwin 22.6.0 22H123)
Copyright (c) 2024, Gurobi Optimization, LLC

Read LP format model from file ../../../miplib2024_submission/instances.20241102/bnn_mnist_7_label9_adversarial_norm_2.lp
Reading time = 0.09 seconds
: 1193 rows, 1295 columns, 397992 nonzeros

CPU model: Apple M1
Thread count: 8 physical cores, 8 logical processors, using up to 8 threads

Optimize a model with 1193 rows, 1295 columns and 397992 nonzeros
Model fingerprint: 0x67daba98
Variable types: 1 continuous, 1294 integer (1294 binary)
Coefficient statistics:
  Matrix range     [1e+00, 5e+02]
  Objective range  [1e+00, 2e+06]
  Bounds range     [1e+00, 1e+00]
  RHS range        [1e+00, 5e+02]
Presolve removed 99 rows and 89 columns
Presolve time: 0.51s
Presolved: 1094 rows, 1206 columns, 351284 nonzeros
Variable types: 0 continuous, 1206 integer (1190 binary)
Starting NoRel heuristic
Found phase-1 solution: relaxation 434
Found phase-1 solution: relaxation 431
Found phase-1 solution: relaxation 290
Found phase-1 solution: relaxation 287
Found phase-1 solution: relaxation 260
Found phase-1 solution: relaxation 228
Found phase-1 solution: relaxation 190
Found phase-1 solution: relaxation 119
Found phase-1 solution: relaxation 85
Found phase-1 solution: relaxation 34
Found phase-1 solution: relaxation 0
Found heuristic solution: objective 1342914.0000
Transition to phase 2
Found heuristic solution: objective 1281590.0000
Found heuristic solution: objective 1226705.0000
Found heuristic solution: objective 1162155.0000
Found heuristic solution: objective 1136974.0000
Found heuristic solution: objective 1031738.0000
Found heuristic solution: objective 1018168.0000
Found heuristic solution: objective 986717.00000
Found heuristic solution: objective 870229.00000
Found heuristic solution: objective 802321.00000
Found heuristic solution: objective 775599.00000
Found heuristic solution: objective 668474.00000
Found heuristic solution: objective 548116.00000
Found heuristic solution: objective 539258.00000
Found heuristic solution: objective 538405.00000
Found heuristic solution: objective 494386.00000
Found heuristic solution: objective 436690.00000
Found heuristic solution: objective 332807.00000
Found heuristic solution: objective 329085.00000
Found heuristic solution: objective 295180.00000
Found heuristic solution: objective 287891.00000
Found heuristic solution: objective 276346.00000
Found heuristic solution: objective 229690.00000
Found heuristic solution: objective 194650.00000
Found heuristic solution: objective 180533.00000
Found heuristic solution: objective 149445.00000
Found heuristic solution: objective 141727.00000
Found heuristic solution: objective 111473.00000
Found heuristic solution: objective 93239.000000
Found heuristic solution: objective 92981.000000
Found heuristic solution: objective 89824.000000
Found heuristic solution: objective 75403.000000
Elapsed time for NoRel heuristic: 5s (best bound 0)
Found heuristic solution: objective 70916.000000
Found heuristic solution: objective 62246.000000
Found heuristic solution: objective 60347.000000
Found heuristic solution: objective 60296.000000
Found heuristic solution: objective 60109.000000
Found heuristic solution: objective 41754.000000
Found heuristic solution: objective 38311.000000
Found heuristic solution: objective 7141.0000000
Found heuristic solution: objective 7065.0000000
Found heuristic solution: objective 6679.0000000
Found heuristic solution: objective 6660.0000000
Found heuristic solution: objective 5668.0000000
Elapsed time for NoRel heuristic: 10s (best bound 0)
Found heuristic solution: objective 4734.0000000
Found heuristic solution: objective 4702.0000000
Found heuristic solution: objective 4577.0000000
Found heuristic solution: objective 4236.0000000
Found heuristic solution: objective 4215.0000000
Found heuristic solution: objective 4179.0000000
Found heuristic solution: objective 3682.0000000
Found heuristic solution: objective 3660.0000000
Found heuristic solution: objective 3529.0000000
Found heuristic solution: objective 3408.0000000
Found heuristic solution: objective 2949.0000000
Elapsed time for NoRel heuristic: 16s (best bound 0)
Found heuristic solution: objective 2751.0000000
Found heuristic solution: objective 2601.0000000
Found heuristic solution: objective 2556.0000000
Found heuristic solution: objective 2543.0000000
Found heuristic solution: objective 2401.0000000
Found heuristic solution: objective 2338.0000000
Elapsed time for NoRel heuristic: 22s (best bound 0)
Found heuristic solution: objective 2298.0000000
Found heuristic solution: objective 2281.0000000
Found heuristic solution: objective 2225.0000000
Found heuristic solution: objective 2220.0000000
Elapsed time for NoRel heuristic: 28s (best bound 0)
Found heuristic solution: objective 2088.0000000
Found heuristic solution: objective 2079.0000000
Found heuristic solution: objective 1965.0000000
Found heuristic solution: objective 1228.0000000
Elapsed time for NoRel heuristic: 34s (best bound 0)
Found heuristic solution: objective 1215.0000000
Found heuristic solution: objective 1188.0000000
Found heuristic solution: objective 1187.0000000
Found heuristic solution: objective 1160.0000000
Found heuristic solution: objective 1149.0000000
Found heuristic solution: objective 632.0000000
Elapsed time for NoRel heuristic: 41s (best bound 0)
Found heuristic solution: objective 614.0000000
Elapsed time for NoRel heuristic: 66s (best bound 0)
Found heuristic solution: objective 545.0000000
Found heuristic solution: objective 457.0000000
Found heuristic solution: objective 427.0000000
Found heuristic solution: objective 423.0000000
Found heuristic solution: objective 303.0000000
Found heuristic solution: objective 295.0000000
Found heuristic solution: objective 282.0000000
Elapsed time for NoRel heuristic: 73s (best bound 0)
Found heuristic solution: objective 279.0000000
Found heuristic solution: objective 272.0000000
Found heuristic solution: objective 246.0000000
Found heuristic solution: objective 223.0000000
Found heuristic solution: objective 204.0000000
Found heuristic solution: objective 191.0000000
Found heuristic solution: objective 168.0000000
Elapsed time for NoRel heuristic: 80s (best bound 0)
Found heuristic solution: objective 159.0000000
Found heuristic solution: objective 138.0000000
Found heuristic solution: objective 124.0000000
Found heuristic solution: objective 111.0000000
Elapsed time for NoRel heuristic: 85s (best bound 0)
Found heuristic solution: objective 103.0000000
Found heuristic solution: objective 100.0000000
Found heuristic solution: objective 92.0000000
Elapsed time for NoRel heuristic: 92s (best bound 0)
Found heuristic solution: objective 90.0000000
Found heuristic solution: objective 88.0000000
Elapsed time for NoRel heuristic: 101s (best bound 0)
Found heuristic solution: objective 87.0000000
Elapsed time for NoRel heuristic: 108s (best bound 0)
Found heuristic solution: objective 86.0000000
Found heuristic solution: objective 77.0000000
Elapsed time for NoRel heuristic: 113s (best bound 0)
Found heuristic solution: objective 62.0000000
Found heuristic solution: objective 58.0000000
Found heuristic solution: objective 49.0000000
Found heuristic solution: objective 44.0000000
Elapsed time for NoRel heuristic: 121s (best bound 0)
Found heuristic solution: objective 41.0000000
Found heuristic solution: objective 39.0000000
Elapsed time for NoRel heuristic: 126s (best bound 0)
Found heuristic solution: objective 37.0000000
Found heuristic solution: objective 33.0000000
Found heuristic solution: objective 32.0000000
Elapsed time for NoRel heuristic: 133s (best bound 0)
Found heuristic solution: objective 31.0000000
Found heuristic solution: objective 30.0000000
Found heuristic solution: objective 29.0000000
Found heuristic solution: objective 28.0000000
Elapsed time for NoRel heuristic: 140s (best bound 0)
Found heuristic solution: objective 27.0000000
Found heuristic solution: objective 26.0000000
Found heuristic solution: objective 25.0000000
Elapsed time for NoRel heuristic: 151s (best bound 0)
Found heuristic solution: objective 24.0000000
Elapsed time for NoRel heuristic: 160s (best bound 0)
Found heuristic solution: objective 22.0000000
Found heuristic solution: objective 19.0000000
Elapsed time for NoRel heuristic: 169s (best bound 0)
Found heuristic solution: objective 18.0000000
Elapsed time for NoRel heuristic: 176s (best bound 0)
Elapsed time for NoRel heuristic: 186s (best bound 0)
Elapsed time for NoRel heuristic: 194s (best bound 0)
Elapsed time for NoRel heuristic: 214s (best bound 0)
Elapsed time for NoRel heuristic: 260s (best bound 0)
Elapsed time for NoRel heuristic: 267s (best bound 0)
Elapsed time for NoRel heuristic: 275s (best bound 0)
Elapsed time for NoRel heuristic: 282s (best bound 0)
Found heuristic solution: objective 17.0000000
Elapsed time for NoRel heuristic: 305s (best bound 0)
Found heuristic solution: objective 13.0000000
Found heuristic solution: objective 12.0000000
Found heuristic solution: objective 11.0000000
Elapsed time for NoRel heuristic: 311s (best bound 0)
Found heuristic solution: objective 9.0000000
Elapsed time for NoRel heuristic: 316s (best bound 0)
Elapsed time for NoRel heuristic: 325s (best bound 0)
Elapsed time for NoRel heuristic: 348s (best bound 0)
Elapsed time for NoRel heuristic: 370s (best bound 0)
Found heuristic solution: objective 7.0000000
Found heuristic solution: objective 6.0000000
Elapsed time for NoRel heuristic: 388s (best bound 0)
Elapsed time for NoRel heuristic: 395s (best bound 0)
Elapsed time for NoRel heuristic: 402s (best bound 0)
Elapsed time for NoRel heuristic: 415s (best bound 0)
Elapsed time for NoRel heuristic: 433s (best bound 0)
Elapsed time for NoRel heuristic: 446s (best bound 0)
Elapsed time for NoRel heuristic: 467s (best bound 0)
Elapsed time for NoRel heuristic: 479s (best bound 0)
Elapsed time for NoRel heuristic: 495s (best bound 0)
Elapsed time for NoRel heuristic: 512s (best bound 0)
Elapsed time for NoRel heuristic: 526s (best bound 0)
Elapsed time for NoRel heuristic: 547s (best bound 0)
Elapsed time for NoRel heuristic: 566s (best bound 0)
Elapsed time for NoRel heuristic: 587s (best bound 0)
Elapsed time for NoRel heuristic: 599s (best bound 0)
NoRel heuristic complete

Explored 0 nodes (0 simplex iterations) in 600.08 seconds (544.46 work units)
Thread count was 8 (of 8 available processors)

Solution count 10: 6 7 9 ... 22

Time limit reached
Best objective 6.000000000000e+00, best bound 0.000000000000e+00, gap 100.0000%

Wrote result file 'bnn_mnist_7_label9_adversarial_norm_2.sol'

